DIMENSION: 105
1
2
6
7
10
11
15
12
19
24
27
26
25
18
16
17
9
8
3
32
31
30
29
22
21
103
20
23
28
33
36
37
42
41
43
46
52
53
58
57
54
51
47
44
104
49
40
45
48
50
55
56
59
105
62
63
70
69
74
75
81
80
76
73
72
77
79
84
83
82
78
71
68
67
64
93
98
99
90
89
86
85
91
92
96
97
101
102
100
95
94
88
87
66
65
61
60
39
38
35
34
14
13
5
